Minimize
  550 x_light_oil + 750 x_non_sticky_oil + 950 x_heavy_oil
Subject To
  c1: 3 x_light_oil + 6 x_non_sticky_oil + 9 x_heavy_oil <= 250
  c2: 3 x_heavy_oil + 2 x_non_sticky_oil + 3 x_light_oil <= 150
End